NAME          DCAP_2_4_3_500_SS342
ROWS
 N  OBJ
 L  CON1
 L  CON2
 L  CON3
 L  CON4
 L  CON5
 L  CON6
 L  CON7
 L  CON8
 L  CON9
 L  CON10
 L  CON11
 L  CON12
 E  CON13
 E  CON14
 E  CON15
 E  CON16
 E  CON17
 E  CON18
 E  CON19
 E  CON20
 E  CON21
 E  CON22
 E  CON23
 E  CON24
COLUMNS
    x[1,1]    OBJ       6.180167      CON1      1.000000    
    x[1,1]    CON7      -1.000000     CON8      -1.000000   
    x[1,1]    CON9      -1.000000   
    x[1,2]    OBJ       6.563535      CON2      1.000000    
    x[1,2]    CON8      -1.000000     CON9      -1.000000   
    x[1,3]    OBJ       7.443064      CON3      1.000000    
    x[1,3]    CON9      -1.000000   
    x[2,1]    OBJ       6.732585      CON4      1.000000    
    x[2,1]    CON10     -1.000000     CON11     -1.000000   
    x[2,1]    CON12     -1.000000   
    x[2,2]    OBJ       5.039546      CON5      1.000000    
    x[2,2]    CON11     -1.000000     CON12     -1.000000   
    x[2,3]    OBJ       6.054841      CON6      1.000000    
    x[2,3]    CON12     -1.000000   
    MARKER    'MARKER'                'INTORG'
    u[1,1]    OBJ       48.076654     CON1      -1.000000   
    u[1,2]    OBJ       20.066487     CON2      -1.000000   
    u[1,3]    OBJ       32.230043     CON3      -1.000000   
    u[2,1]    OBJ       49.996186     CON4      -1.000000   
    u[2,2]    OBJ       49.466655     CON5      -1.000000   
    u[2,3]    OBJ       27.484319     CON6      -1.000000   
    y[1,1,1]  OBJ       8.169140      CON7      0.524003    
    y[1,1,1]  CON13     1.000000    
    y[1,1,2]  OBJ       9.585265      CON8      0.803861    
    y[1,1,2]  CON14     1.000000    
    y[1,1,3]  OBJ       9.754031      CON9      0.647331    
    y[1,1,3]  CON15     1.000000    
    y[1,2,1]  OBJ       9.570172      CON7      0.738641    
    y[1,2,1]  CON16     1.000000    
    y[1,2,2]  OBJ       8.135854      CON8      0.512417    
    y[1,2,2]  CON17     1.000000    
    y[1,2,3]  OBJ       9.316939      CON9      0.699226    
    y[1,2,3]  CON18     1.000000    
    y[1,3,1]  OBJ       8.321121      CON7      0.512656    
    y[1,3,1]  CON19     1.000000    
    y[1,3,2]  OBJ       5.392364      CON8      1.244080    
    y[1,3,2]  CON20     1.000000    
    y[1,3,3]  OBJ       7.421804      CON9      1.436826    
    y[1,3,3]  CON21     1.000000    
    y[1,4,1]  OBJ       7.265438      CON7      0.701716    
    y[1,4,1]  CON22     1.000000    
    y[1,4,2]  OBJ       6.029834      CON8      0.725660    
    y[1,4,2]  CON23     1.000000    
    y[1,4,3]  OBJ       5.923234      CON9      1.069620    
    y[1,4,3]  CON24     1.000000    
    y[2,1,1]  OBJ       6.888670      CON10     0.524003    
    y[2,1,1]  CON13     1.000000    
    y[2,1,2]  OBJ       9.950985      CON11     0.803861    
    y[2,1,2]  CON14     1.000000    
    y[2,1,3]  OBJ       9.909964      CON12     0.647331    
    y[2,1,3]  CON15     1.000000    
    y[2,2,1]  OBJ       6.550051      CON10     0.738641    
    y[2,2,1]  CON16     1.000000    
    y[2,2,2]  OBJ       6.707689      CON11     0.512417    
    y[2,2,2]  CON17     1.000000    
    y[2,2,3]  OBJ       5.086296      CON12     0.699226    
    y[2,2,3]  CON18     1.000000    
    y[2,3,1]  OBJ       6.528028      CON10     0.512656    
    y[2,3,1]  CON19     1.000000    
    y[2,3,2]  OBJ       6.481313      CON11     1.244080    
    y[2,3,2]  CON20     1.000000    
    y[2,3,3]  OBJ       5.006931      CON12     1.436826    
    y[2,3,3]  CON21     1.000000    
    y[2,4,1]  OBJ       9.996092      CON10     0.701716    
    y[2,4,1]  CON22     1.000000    
    y[2,4,2]  OBJ       6.228346      CON11     0.725660    
    y[2,4,2]  CON23     1.000000    
    y[2,4,3]  OBJ       6.284954      CON12     1.069620    
    y[2,4,3]  CON24     1.000000    
    z[1,1]    OBJ       574.628760    CON13     1.000000    
    z[1,2]    OBJ       813.141900    CON14     1.000000    
    z[1,3]    OBJ       843.006713    CON15     1.000000    
    z[2,1]    OBJ       515.445033    CON16     1.000000    
    z[2,2]    OBJ       867.864985    CON17     1.000000    
    z[2,3]    OBJ       982.118474    CON18     1.000000    
    z[3,1]    OBJ       664.441667    CON19     1.000000    
    z[3,2]    OBJ       627.522468    CON20     1.000000    
    z[3,3]    OBJ       560.311162    CON21     1.000000    
    z[4,1]    OBJ       712.936438    CON22     1.000000    
    z[4,2]    OBJ       870.268743    CON23     1.000000    
    z[4,3]    OBJ       827.433657    CON24     1.000000    
    MARKER    'MARKER'                 'INTEND'
RHS
    RHS       CON1      -0.000000     CON2      -0.000000   
    RHS       CON3      -0.000000     CON4      -0.000000   
    RHS       CON5      -0.000000     CON6      -0.000000   
    RHS       CON7      -0.000000     CON8      -0.000000   
    RHS       CON9      -0.000000     CON10     -0.000000   
    RHS       CON11     -0.000000     CON12     -0.000000   
    RHS       CON13     1.000000      CON14     1.000000    
    RHS       CON15     1.000000      CON16     1.000000    
    RHS       CON17     1.000000      CON18     1.000000    
    RHS       CON19     1.000000      CON20     1.000000    
    RHS       CON21     1.000000      CON22     1.000000    
    RHS       CON23     1.000000      CON24     1.000000    
BOUNDS
 BV BOUND     u[1,1]  
 BV BOUND     u[1,2]  
 BV BOUND     u[1,3]  
 BV BOUND     u[2,1]  
 BV BOUND     u[2,2]  
 BV BOUND     u[2,3]  
 BV BOUND     y[1,1,1]
 BV BOUND     y[1,1,2]
 BV BOUND     y[1,1,3]
 BV BOUND     y[1,2,1]
 BV BOUND     y[1,2,2]
 BV BOUND     y[1,2,3]
 BV BOUND     y[1,3,1]
 BV BOUND     y[1,3,2]
 BV BOUND     y[1,3,3]
 BV BOUND     y[1,4,1]
 BV BOUND     y[1,4,2]
 BV BOUND     y[1,4,3]
 BV BOUND     y[2,1,1]
 BV BOUND     y[2,1,2]
 BV BOUND     y[2,1,3]
 BV BOUND     y[2,2,1]
 BV BOUND     y[2,2,2]
 BV BOUND     y[2,2,3]
 BV BOUND     y[2,3,1]
 BV BOUND     y[2,3,2]
 BV BOUND     y[2,3,3]
 BV BOUND     y[2,4,1]
 BV BOUND     y[2,4,2]
 BV BOUND     y[2,4,3]
 BV BOUND     z[1,1]  
 BV BOUND     z[1,2]  
 BV BOUND     z[1,3]  
 BV BOUND     z[2,1]  
 BV BOUND     z[2,2]  
 BV BOUND     z[2,3]  
 BV BOUND     z[3,1]  
 BV BOUND     z[3,2]  
 BV BOUND     z[3,3]  
 BV BOUND     z[4,1]  
 BV BOUND     z[4,2]  
 BV BOUND     z[4,3]  
ENDATA
